bomb.8.tsp
NAME : GeneratedProblem
COMMENT : SVGCrosshatch
TYPE : TSP
DIMENSION : 9
EDGE_WEIGHT_TYPE : EUC_2D
NODE_COORD_SECTION
1 7000 5100
2 7200 4600
3 7200 4900
4 7300 5200
5 7600 4800
6 7600 5100
7 8000 5000
8 8200 4700
9 8300 4500
EOF
