bomb.8.out.txt
NAME : GeneratedProblem.3421.tour
COMMENT : Length = 3421
COMMENT : Found by LKH [Keld Helsgaun] Sat Nov 24 14:17:56 2018
TYPE : TOUR
DIMENSION : 9
TOUR_SECTION
1
3
2
5
9
8
7
6
4
-1
EOF
